nohup: ignoring input
original problem has 3648 variables (192 bin, 0 int, 0 impl, 3456 cont) and 3312 constraints
original problem has 842 variables (421 bin, 0 int, 0 impl, 421 cont) and 479 constraints
original problem has 2728 variables (1364 bin, 0 int, 0 impl, 1364 cont) and 1442 constraints
original problem has 8904 variables (8904 bin, 0 int, 0 impl, 0 cont) and 1069 constraints
original problem has 7195 variables (7195 bin, 0 int, 0 impl, 0 cont) and 714 constraints
original problem has 6000 variables (6000 bin, 0 int, 0 impl, 0 cont) and 2171 constraints
original problem has 13873 variables (552 bin, 0 int, 0 impl, 13321 cont) and 3215 constraints
original problem has 521 variables (56 bin, 0 int, 0 impl, 465 cont) and 688 constraints
original problem has 67732 variables (67732 bin, 0 int, 0 impl, 0 cont) and 656 constraints
original problem has 63009 variables (63009 bin, 0 int, 0 impl, 0 cont) and 507 constraints
original problem has 1298 variables (1254 bin, 0 int, 0 impl, 44 cont) and 353 constraints
original problem has 322 variables (302 bin, 0 int, 0 impl, 20 cont) and 394 constraints
original problem has 2993 variables (2993 bin, 0 int, 0 impl, 0 cont) and 102 constraints
original problem has 1156 variables (1089 bin, 0 int, 0 impl, 67 cont) and 2178 constraints
original problem has 260 variables (259 bin, 0 int, 0 impl, 1 cont) and 224 constraints
original problem has 5325 variables (5323 bin, 0 int, 0 impl, 2 cont) and 3411 constraints
original problem has 10958 variables (96 bin, 0 int, 0 impl, 10862 cont) and 4480 constraints
original problem has 5174 variables (2349 bin, 0 int, 0 impl, 2825 cont) and 26509 constraints
original problem has 6621 variables (6620 bin, 0 int, 0 impl, 1 cont) and 721 constraints
original problem has 769 variables (768 bin, 0 int, 0 impl, 1 cont) and 64 constraints
original problem has 2756 variables (2756 bin, 0 int, 0 impl, 0 cont) and 729 constraints
original problem has 1835 variables (1835 bin, 0 int, 0 impl, 0 cont) and 2387 constraints
original problem has 840 variables (48 bin, 0 int, 0 impl, 792 cont) and 1192 constraints
original problem has 1372 variables (1372 bin, 0 int, 0 impl, 0 cont) and 4944 constraints
original problem has 14101 variables (14101 bin, 0 int, 0 impl, 0 cont) and 1739 constraints
original problem has 6805 variables (6724 bin, 0 int, 0 impl, 81 cont) and 564 constraints
original problem has 73885 variables (73885 bin, 0 int, 0 impl, 0 cont) and 1755 constraints
original problem has 1080 variables (360 bin, 0 int, 0 impl, 720 cont) and 742 constraints
original problem has 12481 variables (192 bin, 0 int, 0 impl, 12289 cont) and 22400 constraints
original problem has 3648 variables (192 bin, 0 int, 0 impl, 3456 cont) and 3312 constraints
original problem has 842 variables (421 bin, 0 int, 0 impl, 421 cont) and 479 constraints
original problem has 2728 variables (1364 bin, 0 int, 0 impl, 1364 cont) and 1442 constraints
original problem has 8904 variables (8904 bin, 0 int, 0 impl, 0 cont) and 1069 constraints
original problem has 7195 variables (7195 bin, 0 int, 0 impl, 0 cont) and 714 constraints
original problem has 6000 variables (6000 bin, 0 int, 0 impl, 0 cont) and 2171 constraints
original problem has 13873 variables (552 bin, 0 int, 0 impl, 13321 cont) and 3215 constraints
original problem has 521 variables (56 bin, 0 int, 0 impl, 465 cont) and 688 constraints
original problem has 67732 variables (67732 bin, 0 int, 0 impl, 0 cont) and 656 constraints
original problem has 63009 variables (63009 bin, 0 int, 0 impl, 0 cont) and 507 constraints
original problem has 1298 variables (1254 bin, 0 int, 0 impl, 44 cont) and 353 constraints
original problem has 322 variables (302 bin, 0 int, 0 impl, 20 cont) and 394 constraints
original problem has 2993 variables (2993 bin, 0 int, 0 impl, 0 cont) and 102 constraints
original problem has 1156 variables (1089 bin, 0 int, 0 impl, 67 cont) and 2178 constraints
original problem has 260 variables (259 bin, 0 int, 0 impl, 1 cont) and 224 constraints
original problem has 5325 variables (5323 bin, 0 int, 0 impl, 2 cont) and 3411 constraints
original problem has 10958 variables (96 bin, 0 int, 0 impl, 10862 cont) and 4480 constraints
original problem has 5174 variables (2349 bin, 0 int, 0 impl, 2825 cont) and 26509 constraints
original problem has 6621 variables (6620 bin, 0 int, 0 impl, 1 cont) and 721 constraints
original problem has 769 variables (768 bin, 0 int, 0 impl, 1 cont) and 64 constraints
original problem has 2756 variables (2756 bin, 0 int, 0 impl, 0 cont) and 729 constraints
original problem has 1835 variables (1835 bin, 0 int, 0 impl, 0 cont) and 2387 constraints
original problem has 840 variables (48 bin, 0 int, 0 impl, 792 cont) and 1192 constraints
original problem has 1372 variables (1372 bin, 0 int, 0 impl, 0 cont) and 4944 constraints
original problem has 14101 variables (14101 bin, 0 int, 0 impl, 0 cont) and 1739 constraints
original problem has 6805 variables (6724 bin, 0 int, 0 impl, 81 cont) and 564 constraints
original problem has 73885 variables (73885 bin, 0 int, 0 impl, 0 cont) and 1755 constraints
original problem has 1080 variables (360 bin, 0 int, 0 impl, 720 cont) and 742 constraints
original problem has 12481 variables (192 bin, 0 int, 0 impl, 12289 cont) and 22400 constraints
/home/liudefen/ecole-env/lib/python3.8/site-packages/numpy/lib/function_base.py:380: RuntimeWarning: Mean of empty slice.
  avg = a.mean(axis)
/home/liudefen/ecole-env/lib/python3.8/site-packages/numpy/core/_methods.py:189: RuntimeWarning: invalid value encountered in double_scalars
  ret = ret.dtype.type(ret / rcount)
/home/liudefen/ecole-env/lib/python3.8/site-packages/numpy/lib/function_base.py:380: RuntimeWarning: Mean of empty slice.
  avg = a.mean(axis)
/home/liudefen/ecole-env/lib/python3.8/site-packages/numpy/core/_methods.py:189: RuntimeWarning: invalid value encountered in double_scalars
  ret = ret.dtype.type(ret / rcount)
geometric
miplib_39binary-small
firstsol
symmetric
./result/generated_instances/miplib_39binary/-small/firstsol/scip/heuristic_mode/lb-from-firstsol-t_total1200s-t_node2s-small_lb_k0_regression_beforenode/seed0/
./result/generated_instances/miplib_39binary/-small/firstsol/scip/heuristic_mode/lb-from-firstsol-t_total1200s-t_node2s-small_lb_baseline_beforenode/seed0/
./result/generated_instances/miplib_39binary/-small/firstsol/scip/heuristic_mode/lb-from-firstsol-t_total1200s-t_node2s-small_lb_baseline_beforenode_freq100/seed0/
./result/generated_instances/miplib_39binary/-small/firstsol/scip/heuristic_mode/lb-from-firstsol-t_total1200s-t_node2s-small_lb_k0_regression_beforenode/seed0/
./result/generated_instances/miplib_39binary/-small/firstsol/scip/heuristic_mode/lb-from-firstsol-t_total1200s-t_node2s-small_lb_k0_regression_beforenode_freq100/seed0/
./result/generated_instances/miplib_39binary/-small/firstsol/scip/heuristic_mode/lb-from-firstsol-t_total1200s-t_node2s-small_lb_k0_rl_beforenode/seed0/
./result/generated_instances/miplib_39binary/-small/firstsol/scip/heuristic_mode/lb-from-firstsol-t_total1200s-t_node2s-small_lb_k0_rl_beforenode_freq100/seed0/
./result/generated_instances/miplib_39binary/-small/firstsol/scip/heuristic_mode/lb-from-firstsol-t_total1200s-t_node2s-small_lb_k0_regression_rl_beforenode/seed0/
./result/generated_instances/miplib_39binary/-small/firstsol/scip/heuristic_mode/lb-from-firstsol-t_total1200s-t_node2s-small_lb_k0_regression_rl_beforenode_freq100/seed0/
seed: 0
cpu
geometric
miplib_39binary
firstsolSolution
scip-baseline primal integral:  44.517181307240264
scip-lb-baseline primal integral:  45.80866428553253
scip-lb-regression primal integral:  44.24381138927808
scip-lb-rl primal integral:  44.48019077984321
scip-lb-regression-rl primal integral:  40.43116597583574
scip-lb-baseline-multi primal integral:  44.990711728067936
scip-lb-regression-multi primal integral:  44.28961669116677
scip-lb-rl-multi primal integral:  47.38051526349767
scip-lb-regression-rl-multi primal integral:  40.2087785511894
rl primal integral:  nan


scip-baseline primal gap:  2.7949740936722236
scip-lb-baseline primal gap:  1.0826579153278004
scip-lb-regression primal gap:  1.5286108398848484
scip-lb-rl primal gap:  1.357313593688687
scip-lb-regression-rl primal gap:  0.878495135332173
scip-lb-baseline-multi primal gap:  0.8964506669405949
scip-lb-regression-multi primal gap:  1.3460525860999013
scip-lb-rl-multi primal gap:  1.3291352373012302
scip-lb-regression-rl-multi primal gap:  0.7453684830821743
rl primal gap:  nan
seed mcts:  0
seed mcts:  0
miplib_39binary-large
firstsol
symmetric
./result/generated_instances/miplib_39binary/-large/firstsol/scip/heuristic_mode/lb-from-firstsol-t_total1200s-t_node2s-large_lb_k0_regression_beforenode/seed0/
./result/generated_instances/miplib_39binary/-large/firstsol/scip/heuristic_mode/lb-from-firstsol-t_total1200s-t_node2s-large_lb_baseline_beforenode/seed0/
./result/generated_instances/miplib_39binary/-large/firstsol/scip/heuristic_mode/lb-from-firstsol-t_total1200s-t_node2s-large_lb_baseline_beforenode_freq100/seed0/
./result/generated_instances/miplib_39binary/-large/firstsol/scip/heuristic_mode/lb-from-firstsol-t_total1200s-t_node2s-large_lb_k0_regression_beforenode/seed0/
./result/generated_instances/miplib_39binary/-large/firstsol/scip/heuristic_mode/lb-from-firstsol-t_total1200s-t_node2s-large_lb_k0_regression_beforenode_freq100/seed0/
./result/generated_instances/miplib_39binary/-large/firstsol/scip/heuristic_mode/lb-from-firstsol-t_total1200s-t_node2s-large_lb_k0_rl_beforenode/seed0/
./result/generated_instances/miplib_39binary/-large/firstsol/scip/heuristic_mode/lb-from-firstsol-t_total1200s-t_node2s-large_lb_k0_rl_beforenode_freq100/seed0/
./result/generated_instances/miplib_39binary/-large/firstsol/scip/heuristic_mode/lb-from-firstsol-t_total1200s-t_node2s-large_lb_k0_regression_rl_beforenode/seed0/
./result/generated_instances/miplib_39binary/-large/firstsol/scip/heuristic_mode/lb-from-firstsol-t_total1200s-t_node2s-large_lb_k0_regression_rl_beforenode_freq100/seed0/
seed: 0
cpu
miplib_39binary-small
rootsol
symmetric
./result/generated_instances/miplib_39binary/-small/rootsol/scip/heuristic_mode/lb-from-rootsol-t_total1200s-t_node2s-small_lb_k0_regression_beforenode/seed0/
./result/generated_instances/miplib_39binary/-small/rootsol/scip/heuristic_mode/lb-from-rootsol-t_total1200s-t_node2s-small_lb_baseline_beforenode/seed0/
./result/generated_instances/miplib_39binary/-small/rootsol/scip/heuristic_mode/lb-from-rootsol-t_total1200s-t_node2s-small_lb_baseline_beforenode_freq100/seed0/
./result/generated_instances/miplib_39binary/-small/rootsol/scip/heuristic_mode/lb-from-rootsol-t_total1200s-t_node2s-small_lb_k0_regression_beforenode/seed0/
./result/generated_instances/miplib_39binary/-small/rootsol/scip/heuristic_mode/lb-from-rootsol-t_total1200s-t_node2s-small_lb_k0_regression_beforenode_freq100/seed0/
./result/generated_instances/miplib_39binary/-small/rootsol/scip/heuristic_mode/lb-from-rootsol-t_total1200s-t_node2s-small_lb_k0_rl_beforenode/seed0/
./result/generated_instances/miplib_39binary/-small/rootsol/scip/heuristic_mode/lb-from-rootsol-t_total1200s-t_node2s-small_lb_k0_rl_beforenode_freq100/seed0/
./result/generated_instances/miplib_39binary/-small/rootsol/scip/heuristic_mode/lb-from-rootsol-t_total1200s-t_node2s-small_lb_k0_regression_rl_beforenode/seed0/
./result/generated_instances/miplib_39binary/-small/rootsol/scip/heuristic_mode/lb-from-rootsol-t_total1200s-t_node2s-small_lb_k0_regression_rl_beforenode_freq100/seed0/
seed: 0
cpu
geometric
miplib_39binary
rootsolSolution
scip-baseline primal integral:  36.71788300488379
scip-lb-baseline primal integral:  42.46208437800448
scip-lb-regression primal integral:  31.85851970607996
scip-lb-rl primal integral:  39.364006764329304
scip-lb-regression-rl primal integral:  31.760081241580735
scip-lb-baseline-multi primal integral:  42.13522226723046
scip-lb-regression-multi primal integral:  32.64350126419819
scip-lb-rl-multi primal integral:  40.08433356608242
scip-lb-regression-rl-multi primal integral:  32.34731268463176
rl primal integral:  nan


scip-baseline primal gap:  0.8636892495954811
scip-lb-baseline primal gap:  2.747316375229076
scip-lb-regression primal gap:  2.2165607516445505
scip-lb-rl primal gap:  2.571237932152954
scip-lb-regression-rl primal gap:  1.738037212049747
scip-lb-baseline-multi primal gap:  2.7538376957965482
scip-lb-regression-multi primal gap:  2.1728480841510986
scip-lb-rl-multi primal gap:  2.5748484843138613
scip-lb-regression-rl-multi primal gap:  2.0588231550358955
rl primal gap:  nan
seed mcts:  0
seed mcts:  0
miplib_39binary-large
rootsol
symmetric
./result/generated_instances/miplib_39binary/-large/rootsol/scip/heuristic_mode/lb-from-rootsol-t_total1200s-t_node2s-large_lb_k0_regression_beforenode/seed0/
./result/generated_instances/miplib_39binary/-large/rootsol/scip/heuristic_mode/lb-from-rootsol-t_total1200s-t_node2s-large_lb_baseline_beforenode/seed0/
./result/generated_instances/miplib_39binary/-large/rootsol/scip/heuristic_mode/lb-from-rootsol-t_total1200s-t_node2s-large_lb_baseline_beforenode_freq100/seed0/
./result/generated_instances/miplib_39binary/-large/rootsol/scip/heuristic_mode/lb-from-rootsol-t_total1200s-t_node2s-large_lb_k0_regression_beforenode/seed0/
./result/generated_instances/miplib_39binary/-large/rootsol/scip/heuristic_mode/lb-from-rootsol-t_total1200s-t_node2s-large_lb_k0_regression_beforenode_freq100/seed0/
./result/generated_instances/miplib_39binary/-large/rootsol/scip/heuristic_mode/lb-from-rootsol-t_total1200s-t_node2s-large_lb_k0_rl_beforenode/seed0/
./result/generated_instances/miplib_39binary/-large/rootsol/scip/heuristic_mode/lb-from-rootsol-t_total1200s-t_node2s-large_lb_k0_rl_beforenode_freq100/seed0/
./result/generated_instances/miplib_39binary/-large/rootsol/scip/heuristic_mode/lb-from-rootsol-t_total1200s-t_node2s-large_lb_k0_regression_rl_beforenode/seed0/
./result/generated_instances/miplib_39binary/-large/rootsol/scip/heuristic_mode/lb-from-rootsol-t_total1200s-t_node2s-large_lb_k0_regression_rl_beforenode_freq100/seed0/
seed: 0
cpu
